\ This file has been generated by DOcplex
\ ENCODING=ISO-8859-1
\Problem name: <decpomdp.DecPOMDP object at 0x1341a7100> problem

Maximize
 obj: V
Subject To
 c1: V + 18.053054176559 a0_0 + 88.222749838118 a0_1 + 88.222749838118 a0_2 <= 
     0
 c2: V + 88.222749838118 a0_0 + 57.222749838118 a0_1 + 142.222749838118 a0_2
      <= 0
 c3: V + 88.222749838118 a0_0 + 142.222749838118 a0_1 + 57.222749838118 a0_2
      <= 0
 c4: a0_0 + a0_1 + a0_2 = 1

Bounds
       a0_0 <= 1
       a0_1 <= 1
       a0_2 <= 1
       V Free
End
